20
587 233 220
89 78 50
73 65 46
94 66 39
66 59 42
106 93 70
80 71 62
60 36 26
72 31 31
63 63 31
74 39 23
105 72 52
101 76 45
93 73 65
74 47 42
72 33 28
99 91 45
79 60 44
81 57 50
99 72 61
38 35 31
thpack7_22